c "329365.clq"
p edge 199 2928
e 1 17
e 1 18
e 1 19
e 1 20
e 1 21
e 1 22
e 1 23
e 1 24
e 1 25
e 1 26
e 1 27
e 1 28
e 1 29
e 1 30
e 1 31
e 1 32
e 1 33
e 1 35
e 1 37
e 1 38
e 1 39
e 1 40
e 1 46
e 1 51
e 1 52
e 1 56
e 1 57
e 1 58
e 1 59
e 1 60
e 1 61
e 1 62
e 1 66
e 1 70
e 1 71
e 1 73
e 1 74
e 1 76
e 1 77
e 1 78
e 1 80
e 1 83
e 1 84
e 1 86
e 1 90
e 1 91
e 1 93
e 1 96
e 1 100
e 1 101
e 1 108
e 1 113
e 1 114
e 1 124
e 1 125
e 1 133
e 1 135
e 1 156
e 1 166
e 1 167
e 1 169
e 1 170
e 1 175
e 1 180
e 1 192
e 1 196
e 2 17
e 2 19
e 2 20
e 2 21
e 2 24
e 2 28
e 2 31
e 2 32
e 2 34
e 2 42
e 2 45
e 2 49
e 2 55
e 2 57
e 2 61
e 2 62
e 2 89
e 2 111
e 2 115
e 2 120
e 2 122
e 2 128
e 2 133
e 2 155
e 2 175
e 2 191
e 3 17
e 3 18
e 3 19
e 3 20
e 3 21
e 3 22
e 3 25
e 3 28
e 3 32
e 3 36
e 3 38
e 3 39
e 3 40
e 3 46
e 3 51
e 3 61
e 3 63
e 3 64
e 3 69
e 3 74
e 3 79
e 3 81
e 3 83
e 3 85
e 3 89
e 3 93
e 3 97
e 3 99
e 3 101
e 3 109
e 3 114
e 3 124
e 3 139
e 3 155
e 3 170
e 3 171
e 3 177
e 3 184
e 3 187
e 3 199
e 4 17
e 4 18
e 4 19
e 4 20
e 4 21
e 4 22
e 4 23
e 4 24
e 4 26
e 4 29
e 4 31
e 4 32
e 4 36
e 4 37
e 4 40
e 4 42
e 4 44
e 4 45
e 4 46
e 4 47
e 4 49
e 4 50
e 4 54
e 4 55
e 4 56
e 4 59
e 4 63
e 4 64
e 4 66
e 4 67
e 4 70
e 4 73
e 4 75
e 4 76
e 4 78
e 4 81
e 4 82
e 4 85
e 4 89
e 4 92
e 4 94
e 4 97
e 4 100
e 4 101
e 4 110
e 4 117
e 4 119
e 4 126
e 4 130
e 4 139
e 4 143
e 4 144
e 4 155
e 4 158
e 4 159
e 4 179
e 4 185
e 4 192
e 4 199
e 5 17
e 5 18
e 5 19
e 5 20
e 5 21
e 5 22
e 5 23
e 5 24
e 5 25
e 5 26
e 5 28
e 5 31
e 5 32
e 5 33
e 5 35
e 5 36
e 5 37
e 5 44
e 5 45
e 5 49
e 5 50
e 5 53
e 5 55
e 5 57
e 5 58
e 5 61
e 5 64
e 5 67
e 5 92
e 5 99
e 5 106
e 5 109
e 5 110
e 5 120
e 5 132
e 5 133
e 5 136
e 5 137
e 5 142
e 5 146
e 5 162
e 5 163
e 5 164
e 5 172
e 5 175
e 5 178
e 5 181
e 5 185
e 5 193
e 5 194
e 6 17
e 6 18
e 6 19
e 6 20
e 6 21
e 6 22
e 6 23
e 6 24
e 6 25
e 6 26
e 6 29
e 6 30
e 6 31
e 6 33
e 6 36
e 6 39
e 6 42
e 6 44
e 6 45
e 6 46
e 6 48
e 6 51
e 6 53
e 6 56
e 6 58
e 6 60
e 6 62
e 6 75
e 6 78
e 6 79
e 6 81
e 6 87
e 6 97
e 6 98
e 6 99
e 6 107
e 6 109
e 6 124
e 6 130
e 6 132
e 6 133
e 6 141
e 6 148
e 6 149
e 6 153
e 6 170
e 6 175
e 6 176
e 6 179
e 6 195
e 6 196
e 7 17
e 7 18
e 7 29
e 7 30
e 7 32
e 7 41
e 7 43
e 7 65
e 7 66
e 7 68
e 7 127
e 7 153
e 7 181
e 7 195
e 8 17
e 8 18
e 8 19
e 8 20
e 8 21
e 8 26
e 8 30
e 8 34
e 8 38
e 8 62
e 8 72
e 8 82
e 8 86
e 8 89
e 8 108
e 8 110
e 8 117
e 8 128
e 8 147
e 8 181
e 9 17
e 9 18
e 9 19
e 9 20
e 9 22
e 9 24
e 9 27
e 9 28
e 9 30
e 9 31
e 9 34
e 9 35
e 9 36
e 9 38
e 9 39
e 9 40
e 9 42
e 9 43
e 9 44
e 9 46
e 9 47
e 9 48
e 9 49
e 9 52
e 9 53
e 9 54
e 9 58
e 9 60
e 9 66
e 9 67
e 9 68
e 9 71
e 9 76
e 9 78
e 9 81
e 9 83
e 9 87
e 9 88
e 9 91
e 9 92
e 9 99
e 9 108
e 9 111
e 9 113
e 9 118
e 9 120
e 9 124
e 9 127
e 9 129
e 9 136
e 9 144
e 9 145
e 9 165
e 9 176
e 9 185
e 9 195
e 9 198
e 10 17
e 10 18
e 10 19
e 10 20
e 10 21
e 10 22
e 10 23
e 10 25
e 10 26
e 10 27
e 10 30
e 10 34
e 10 36
e 10 37
e 10 45
e 10 51
e 10 56
e 10 63
e 10 64
e 10 66
e 10 68
e 10 69
e 10 71
e 10 78
e 10 82
e 10 94
e 10 98
e 10 109
e 10 113
e 10 117
e 10 119
e 10 123
e 10 125
e 10 130
e 10 160
e 10 163
e 10 173
e 10 182
e 10 188
e 11 17
e 11 18
e 11 19
e 11 22
e 11 25
e 11 29
e 11 31
e 11 34
e 11 35
e 11 50
e 11 60
e 11 67
e 11 74
e 11 88
e 11 89
e 11 93
e 11 104
e 11 107
e 11 118
e 11 119
e 11 121
e 11 135
e 11 140
e 11 165
e 11 170
e 12 17
e 12 18
e 12 19
e 12 23
e 12 24
e 12 25
e 12 26
e 12 27
e 12 29
e 12 30
e 12 39
e 12 41
e 12 49
e 12 50
e 12 67
e 12 72
e 12 74
e 12 95
e 12 108
e 12 118
e 12 125
e 12 128
e 12 134
e 12 137
e 12 152
e 12 169
e 12 170
e 12 175
e 12 179
e 13 17
e 13 18
e 13 19
e 13 20
e 13 21
e 13 22
e 13 23
e 13 25
e 13 26
e 13 27
e 13 28
e 13 29
e 13 30
e 13 32
e 13 34
e 13 42
e 13 43
e 13 52
e 13 74
e 13 78
e 13 88
e 13 103
e 13 109
e 13 117
e 13 119
e 13 121
e 13 135
e 13 148
e 13 161
e 13 164
e 13 174
e 13 183
e 14 17
e 14 18
e 14 19
e 14 20
e 14 21
e 14 23
e 14 24
e 14 25
e 14 26
e 14 27
e 14 28
e 14 29
e 14 31
e 14 37
e 14 38
e 14 44
e 14 47
e 14 49
e 14 51
e 14 55
e 14 57
e 14 61
e 14 63
e 14 80
e 14 82
e 14 84
e 14 88
e 14 91
e 14 94
e 14 103
e 14 104
e 14 112
e 14 127
e 14 133
e 14 135
e 14 151
e 14 155
e 14 168
e 14 169
e 14 182
e 15 17
e 15 18
e 15 19
e 15 20
e 15 21
e 15 22
e 15 23
e 15 24
e 15 27
e 15 28
e 15 31
e 15 33
e 15 41
e 15 43
e 15 45
e 15 47
e 15 48
e 15 83
e 15 85
e 15 86
e 15 90
e 15 91
e 15 101
e 15 110
e 15 112
e 15 121
e 15 144
e 15 167
e 15 168
e 15 173
e 15 174
e 15 191
e 16 17
e 16 18
e 16 20
e 16 21
e 16 22
e 16 23
e 16 25
e 16 28
e 16 34
e 16 36
e 16 47
e 16 53
e 16 54
e 16 65
e 16 77
e 16 95
e 16 97
e 16 102
e 16 126
e 16 177
e 16 182
e 17 18
e 17 19
e 17 20
e 17 21
e 17 22
e 17 23
e 17 24
e 17 26
e 17 27
e 17 30
e 17 32
e 17 35
e 17 36
e 17 38
e 17 39
e 17 42
e 17 43
e 17 44
e 17 46
e 17 48
e 17 49
e 17 50
e 17 51
e 17 52
e 17 54
e 17 55
e 17 58
e 17 59
e 17 60
e 17 62
e 17 65
e 17 69
e 17 70
e 17 71
e 17 73
e 17 76
e 17 81
e 17 84
e 17 86
e 17 87
e 17 90
e 17 91
e 17 95
e 17 96
e 17 100
e 17 103
e 17 104
e 17 109
e 17 110
e 17 112
e 17 113
e 17 114
e 17 116
e 17 117
e 17 120
e 17 121
e 17 122
e 17 125
e 17 126
e 17 128
e 17 131
e 17 134
e 17 139
e 17 140
e 17 142
e 17 145
e 17 149
e 17 153
e 17 160
e 17 163
e 17 165
e 17 167
e 17 171
e 17 177
e 17 178
e 17 187
e 17 191
e 17 199
e 18 19
e 18 20
e 18 21
e 18 22
e 18 23
e 18 24
e 18 25
e 18 26
e 18 27
e 18 30
e 18 32
e 18 33
e 18 34
e 18 35
e 18 36
e 18 37
e 18 40
e 18 41
e 18 42
e 18 43
e 18 44
e 18 45
e 18 48
e 18 49
e 18 50
e 18 51
e 18 52
e 18 55
e 18 57
e 18 58
e 18 59
e 18 60
e 18 63
e 18 64
e 18 68
e 18 71
e 18 75
e 18 78
e 18 79
e 18 80
e 18 81
e 18 85
e 18 87
e 18 88
e 18 89
e 18 91
e 18 92
e 18 94
e 18 95
e 18 96
e 18 98
e 18 102
e 18 104
e 18 108
e 18 110
e 18 111
e 18 112
e 18 118
e 18 121
e 18 122
e 18 123
e 18 124
e 18 127
e 18 134
e 18 136
e 18 137
e 18 139
e 18 145
e 18 146
e 18 149
e 18 150
e 18 158
e 18 159
e 18 163
e 18 168
e 18 171
e 18 172
e 18 175
e 18 176
e 18 177
e 18 184
e 18 185
e 18 190
e 18 192
e 19 20
e 19 21
e 19 22
e 19 23
e 19 24
e 19 25
e 19 27
e 19 28
e 19 29
e 19 30
e 19 31
e 19 32
e 19 33
e 19 34
e 19 36
e 19 38
e 19 39
e 19 40
e 19 41
e 19 43
e 19 44
e 19 45
e 19 47
e 19 49
e 19 54
e 19 56
e 19 57
e 19 61
e 19 62
e 19 63
e 19 65
e 19 67
e 19 68
e 19 69
e 19 72
e 19 76
e 19 77
e 19 82
e 19 83
e 19 85
e 19 89
e 19 93
e 19 94
e 19 95
e 19 98
e 19 99
e 19 101
e 19 105
e 19 107
e 19 108
e 19 110
e 19 113
e 19 125
e 19 132
e 19 138
e 19 143
e 19 154
e 19 161
e 19 162
e 19 165
e 19 166
e 19 171
e 19 173
e 19 174
e 19 176
e 19 178
e 19 179
e 19 183
e 19 184
e 19 185
e 19 190
e 19 192
e 19 196
e 20 21
e 20 22
e 20 23
e 20 24
e 20 25
e 20 26
e 20 27
e 20 28
e 20 29
e 20 30
e 20 31
e 20 32
e 20 33
e 20 35
e 20 36
e 20 37
e 20 38
e 20 39
e 20 40
e 20 41
e 20 43
e 20 45
e 20 46
e 20 48
e 20 51
e 20 52
e 20 53
e 20 55
e 20 57
e 20 58
e 20 59
e 20 61
e 20 64
e 20 66
e 20 67
e 20 69
e 20 71
e 20 74
e 20 75
e 20 76
e 20 78
e 20 80
e 20 82
e 20 84
e 20 90
e 20 92
e 20 93
e 20 96
e 20 98
e 20 101
e 20 104
e 20 105
e 20 106
e 20 107
e 20 108
e 20 109
e 20 112
e 20 113
e 20 115
e 20 116
e 20 119
e 20 120
e 20 124
e 20 125
e 20 126
e 20 134
e 20 135
e 20 138
e 20 145
e 20 146
e 20 147
e 20 150
e 20 151
e 20 154
e 20 157
e 20 158
e 20 166
e 20 167
e 20 168
e 20 171
e 20 176
e 20 180
e 20 182
e 20 185
e 20 190
e 20 193
e 20 199
e 21 22
e 21 23
e 21 24
e 21 26
e 21 27
e 21 28
e 21 30
e 21 31
e 21 32
e 21 33
e 21 35
e 21 40
e 21 41
e 21 43
e 21 44
e 21 45
e 21 46
e 21 47
e 21 52
e 21 53
e 21 57
e 21 62
e 21 68
e 21 72
e 21 78
e 21 79
e 21 81
e 21 86
e 21 89
e 21 98
e 21 102
e 21 105
e 21 107
e 21 123
e 21 128
e 21 129
e 21 131
e 21 132
e 21 133
e 21 136
e 21 137
e 21 147
e 21 152
e 21 153
e 21 161
e 21 168
e 21 173
e 21 177
e 21 187
e 21 193
e 22 23
e 22 24
e 22 25
e 22 26
e 22 28
e 22 29
e 22 30
e 22 33
e 22 34
e 22 35
e 22 36
e 22 37
e 22 39
e 22 41
e 22 45
e 22 48
e 22 49
e 22 50
e 22 52
e 22 53
e 22 54
e 22 61
e 22 62
e 22 63
e 22 66
e 22 67
e 22 69
e 22 70
e 22 71
e 22 73
e 22 74
e 22 75
e 22 78
e 22 81
e 22 82
e 22 89
e 22 90
e 22 92
e 22 98
e 22 100
e 22 101
e 22 104
e 22 106
e 22 107
e 22 111
e 22 117
e 22 118
e 22 129
e 22 139
e 22 140
e 22 141
e 22 148
e 22 150
e 22 151
e 22 158
e 22 159
e 22 164
e 22 166
e 22 168
e 22 172
e 22 176
e 22 178
e 22 181
e 22 182
e 22 186
e 22 190
e 22 195
e 23 24
e 23 25
e 23 26
e 23 27
e 23 29
e 23 33
e 23 39
e 23 40
e 23 42
e 23 43
e 23 46
e 23 47
e 23 50
e 23 54
e 23 57
e 23 61
e 23 69
e 23 70
e 23 77
e 23 80
e 23 81
e 23 94
e 23 97
e 23 103
e 23 111
e 23 121
e 23 123
e 23 128
e 23 138
e 23 147
e 23 152
e 23 154
e 23 156
e 23 157
e 23 165
e 23 169
e 23 172
e 23 182
e 23 186
e 23 193
e 24 25
e 24 27
e 24 28
e 24 31
e 24 33
e 24 34
e 24 35
e 24 39
e 24 40
e 24 41
e 24 42
e 24 48
e 24 56
e 24 57
e 24 58
e 24 59
e 24 60
e 24 62
e 24 63
e 24 71
e 24 74
e 24 80
e 24 84
e 24 87
e 24 96
e 24 99
e 24 100
e 24 103
e 24 105
e 24 140
e 24 154
e 24 156
e 24 157
e 24 195
e 25 26
e 25 27
e 25 28
e 25 29
e 25 31
e 25 32
e 25 35
e 25 36
e 25 37
e 25 40
e 25 46
e 25 47
e 25 48
e 25 50
e 25 51
e 25 53
e 25 54
e 25 56
e 25 58
e 25 60
e 25 62
e 25 63
e 25 68
e 25 69
e 25 71
e 25 75
e 25 76
e 25 79
e 25 81
e 25 84
e 25 91
e 25 93
e 25 96
e 25 112
e 25 119
e 25 127
e 25 128
e 25 141
e 25 148
e 25 150
e 25 156
e 25 168
e 25 173
e 25 178
e 25 179
e 25 180
e 25 186
e 25 187
e 25 190
e 25 193
e 26 27
e 26 28
e 26 29
e 26 30
e 26 32
e 26 33
e 26 34
e 26 35
e 26 37
e 26 38
e 26 39
e 26 40
e 26 41
e 26 42
e 26 43
e 26 44
e 26 47
e 26 48
e 26 51
e 26 52
e 26 53
e 26 54
e 26 56
e 26 59
e 26 61
e 26 62
e 26 63
e 26 64
e 26 65
e 26 67
e 26 70
e 26 72
e 26 73
e 26 83
e 26 89
e 26 90
e 26 92
e 26 93
e 26 96
e 26 97
e 26 98
e 26 104
e 26 106
e 26 108
e 26 112
e 26 115
e 26 119
e 26 120
e 26 122
e 26 123
e 26 128
e 26 129
e 26 134
e 26 137
e 26 140
e 26 161
e 26 165
e 26 167
e 26 168
e 26 169
e 26 170
e 26 174
e 26 181
e 26 187
e 26 188
e 26 189
e 26 199
e 27 29
e 27 31
e 27 32
e 27 37
e 27 41
e 27 42
e 27 45
e 27 48
e 27 51
e 27 55
e 27 58
e 27 61
e 27 62
e 27 63
e 27 64
e 27 66
e 27 68
e 27 70
e 27 72
e 27 76
e 27 84
e 27 91
e 27 98
e 27 100
e 27 107
e 27 111
e 27 126
e 27 129
e 27 139
e 27 142
e 27 147
e 27 148
e 27 154
e 27 155
e 27 156
e 27 158
e 27 167
e 27 169
e 27 171
e 27 173
e 27 174
e 27 187
e 27 190
e 27 193
e 27 198
e 28 29
e 28 30
e 28 32
e 28 33
e 28 35
e 28 43
e 28 45
e 28 46
e 28 47
e 28 51
e 28 56
e 28 58
e 28 59
e 28 62
e 28 64
e 28 67
e 28 68
e 28 76
e 28 77
e 28 83
e 28 84
e 28 85
e 28 95
e 28 96
e 28 100
e 28 101
e 28 102
e 28 103
e 28 109
e 28 112
e 28 114
e 28 115
e 28 116
e 28 118
e 28 119
e 28 121
e 28 125
e 28 129
e 28 131
e 28 139
e 28 140
e 28 155
e 28 156
e 28 162
e 28 170
e 28 176
e 28 177
e 28 181
e 28 196
e 29 33
e 29 34
e 29 35
e 29 41
e 29 43
e 29 45
e 29 50
e 29 56
e 29 61
e 29 63
e 29 65
e 29 70
e 29 76
e 29 77
e 29 82
e 29 87
e 29 93
e 29 111
e 29 121
e 29 127
e 29 128
e 29 129
e 29 133
e 29 135
e 29 138
e 29 141
e 29 142
e 29 154
e 29 157
e 29 162
e 29 166
e 29 167
e 29 169
e 29 176
e 30 31
e 30 33
e 30 36
e 30 37
e 30 38
e 30 40
e 30 41
e 30 44
e 30 52
e 30 53
e 30 54
e 30 59
e 30 60
e 30 63
e 30 68
e 30 70
e 30 71
e 30 72
e 30 73
e 30 74
e 30 75
e 30 77
e 30 83
e 30 84
e 30 85
e 30 90
e 30 93
e 30 100
e 30 106
e 30 107
e 30 131
e 30 136
e 30 149
e 30 155
e 30 158
e 30 170
e 30 173
e 30 181
e 30 185
e 30 195
e 31 34
e 31 35
e 31 37
e 31 38
e 31 40
e 31 41
e 31 42
e 31 43
e 31 44
e 31 45
e 31 49
e 31 51
e 31 52
e 31 53
e 31 54
e 31 59
e 31 62
e 31 65
e 31 73
e 31 84
e 31 86
e 31 90
e 31 91
e 31 96
e 31 99
e 31 101
e 31 109
e 31 111
e 31 116
e 31 117
e 31 120
e 31 121
e 31 123
e 31 127
e 31 138
e 31 146
e 31 149
e 31 150
e 31 155
e 31 160
e 31 165
e 31 176
e 31 183
e 31 188
e 31 190
e 32 33
e 32 34
e 32 36
e 32 38
e 32 39
e 32 44
e 32 47
e 32 48
e 32 55
e 32 56
e 32 59
e 32 64
e 32 70
e 32 78
e 32 79
e 32 97
e 32 99
e 32 103
e 32 108
e 32 117
e 32 118
e 32 137
e 32 150
e 32 153
e 32 169
e 32 170
e 32 172
e 32 176
e 32 189
e 32 190
e 33 34
e 33 36
e 33 37
e 33 38
e 33 46
e 33 49
e 33 54
e 33 56
e 33 57
e 33 58
e 33 60
e 33 64
e 33 65
e 33 69
e 33 79
e 33 80
e 33 83
e 33 85
e 33 88
e 33 90
e 33 92
e 33 97
e 33 100
e 33 104
e 33 106
e 33 110
e 33 119
e 33 120
e 33 124
e 33 126
e 33 138
e 33 148
e 33 149
e 33 164
e 33 183
e 33 191
e 33 193
e 33 198
e 34 35
e 34 37
e 34 39
e 34 42
e 34 46
e 34 49
e 34 55
e 34 57
e 34 64
e 34 66
e 34 68
e 34 77
e 34 86
e 34 88
e 34 91
e 34 92
e 34 94
e 34 96
e 34 105
e 34 106
e 34 107
e 34 113
e 34 115
e 34 116
e 34 118
e 34 119
e 34 123
e 34 128
e 34 130
e 34 147
e 34 150
e 34 166
e 34 169
e 34 175
e 34 197
e 35 38
e 35 39
e 35 42
e 35 44
e 35 50
e 35 55
e 35 64
e 35 66
e 35 67
e 35 68
e 35 76
e 35 77
e 35 81
e 35 90
e 35 91
e 35 100
e 35 102
e 35 109
e 35 113
e 35 118
e 35 125
e 35 132
e 35 134
e 35 139
e 35 143
e 35 158
e 35 166
e 35 170
e 35 174
e 35 177
e 35 181
e 35 186
e 36 37
e 36 38
e 36 41
e 36 42
e 36 43
e 36 52
e 36 53
e 36 54
e 36 61
e 36 68
e 36 69
e 36 73
e 36 74
e 36 82
e 36 86
e 36 92
e 36 93
e 36 95
e 36 96
e 36 101
e 36 103
e 36 123
e 36 125
e 36 131
e 36 136
e 36 142
e 36 156
e 36 194
e 36 195
e 36 196
e 36 197
e 36 199
e 37 38
e 37 43
e 37 44
e 37 45
e 37 46
e 37 47
e 37 49
e 37 50
e 37 58
e 37 65
e 37 69
e 37 74
e 37 76
e 37 82
e 37 85
e 37 87
e 37 88
e 37 91
e 37 94
e 37 103
e 37 108
e 37 116
e 37 123
e 37 126
e 37 143
e 37 160
e 37 168
e 37 171
e 37 175
e 37 183
e 37 188
e 37 189
e 38 39
e 38 40
e 38 41
e 38 42
e 38 47
e 38 48
e 38 52
e 38 56
e 38 60
e 38 61
e 38 63
e 38 65
e 38 75
e 38 84
e 38 85
e 38 87
e 38 95
e 38 96
e 38 102
e 38 106
e 38 109
e 38 111
e 38 114
e 38 126
e 38 132
e 38 147
e 38 148
e 38 163
e 38 167
e 38 168
e 38 177
e 38 179
e 38 189
e 39 40
e 39 65
e 39 71
e 39 73
e 39 78
e 39 79
e 39 83
e 39 102
e 39 105
e 39 107
e 39 112
e 39 115
e 39 135
e 39 140
e 39 148
e 39 149
e 39 153
e 39 162
e 39 181
e 40 44
e 40 47
e 40 50
e 40 52
e 40 53
e 40 54
e 40 55
e 40 58
e 40 67
e 40 75
e 40 79
e 40 85
e 40 86
e 40 87
e 40 90
e 40 95
e 40 97
e 40 107
e 40 113
e 40 120
e 40 124
e 40 143
e 40 162
e 40 166
e 40 182
e 40 184
e 40 191
e 40 193
e 40 196
e 41 50
e 41 51
e 41 53
e 41 55
e 41 56
e 41 59
e 41 67
e 41 71
e 41 72
e 41 78
e 41 80
e 41 86
e 41 87
e 41 93
e 41 95
e 41 97
e 41 102
e 41 103
e 41 107
e 41 110
e 41 111
e 41 117
e 41 131
e 41 133
e 41 136
e 41 143
e 41 168
e 41 171
e 41 174
e 41 186
e 41 190
e 41 196
e 42 46
e 42 51
e 42 52
e 42 57
e 42 61
e 42 63
e 42 65
e 42 69
e 42 76
e 42 77
e 42 85
e 42 104
e 42 113
e 42 115
e 42 117
e 42 118
e 42 125
e 42 126
e 42 129
e 42 142
e 42 144
e 42 152
e 42 155
e 42 167
e 42 172
e 43 57
e 43 60
e 43 66
e 43 75
e 43 81
e 43 89
e 43 99
e 43 102
e 43 108
e 43 120
e 43 125
e 43 134
e 43 145
e 43 151
e 43 164
e 43 165
e 43 179
e 43 188
e 43 199
e 44 53
e 44 55
e 44 61
e 44 66
e 44 68
e 44 72
e 44 80
e 44 82
e 44 83
e 44 86
e 44 89
e 44 105
e 44 106
e 44 107
e 44 110
e 44 122
e 44 123
e 44 125
e 44 144
e 44 149
e 44 156
e 44 171
e 44 193
e 45 46
e 45 47
e 45 48
e 45 54
e 45 64
e 45 76
e 45 78
e 45 93
e 45 104
e 45 109
e 45 145
e 45 163
e 45 185
e 45 192
e 46 48
e 46 49
e 46 60
e 46 63
e 46 67
e 46 71
e 46 73
e 46 79
e 46 80
e 46 92
e 46 98
e 46 103
e 46 108
e 46 115
e 46 117
e 46 125
e 46 132
e 46 135
e 46 136
e 46 137
e 46 148
e 46 157
e 46 166
e 46 172
e 46 184
e 46 191
e 46 195
e 46 197
e 47 48
e 47 49
e 47 56
e 47 57
e 47 65
e 47 67
e 47 72
e 47 84
e 47 88
e 47 98
e 47 102
e 47 104
e 47 119
e 47 123
e 47 131
e 47 154
e 47 157
e 47 159
e 47 160
e 47 161
e 47 176
e 47 182
e 47 184
e 47 193
e 47 194
e 47 196
e 48 50
e 48 51
e 48 65
e 48 73
e 48 77
e 48 79
e 48 82
e 48 83
e 48 93
e 48 99
e 48 100
e 48 106
e 48 116
e 48 117
e 48 122
e 48 127
e 48 129
e 48 136
e 48 144
e 48 152
e 48 157
e 48 163
e 48 166
e 48 175
e 48 186
e 48 187
e 48 189
e 48 190
e 48 197
e 49 50
e 49 58
e 49 59
e 49 60
e 49 72
e 49 75
e 49 80
e 49 85
e 49 94
e 49 105
e 49 117
e 49 123
e 49 130
e 49 138
e 49 143
e 49 150
e 49 167
e 49 182
e 49 184
e 49 187
e 49 188
e 49 192
e 50 55
e 50 70
e 50 75
e 50 79
e 50 80
e 50 82
e 50 94
e 50 105
e 50 118
e 50 122
e 50 129
e 50 135
e 50 137
e 50 138
e 50 144
e 50 153
e 50 159
e 50 172
e 50 183
e 50 185
e 50 193
e 51 52
e 51 53
e 51 54
e 51 60
e 51 70
e 51 76
e 51 97
e 51 114
e 51 120
e 51 124
e 51 126
e 51 129
e 51 130
e 51 132
e 51 138
e 51 164
e 51 185
e 52 88
e 52 111
e 52 116
e 52 119
e 52 121
e 52 131
e 52 152
e 52 156
e 52 182
e 52 191
e 53 56
e 53 57
e 53 62
e 53 68
e 53 83
e 53 90
e 53 101
e 53 130
e 53 141
e 53 149
e 53 156
e 53 158
e 53 161
e 53 188
e 53 192
e 53 194
e 54 55
e 54 59
e 54 60
e 54 71
e 54 72
e 54 75
e 54 79
e 54 80
e 54 87
e 54 92
e 54 94
e 54 97
e 54 101
e 54 102
e 54 103
e 54 105
e 54 109
e 54 110
e 54 112
e 54 113
e 54 116
e 54 126
e 54 127
e 54 132
e 54 133
e 54 136
e 54 137
e 54 146
e 54 149
e 54 159
e 54 161
e 54 163
e 54 164
e 54 169
e 54 172
e 54 198
e 55 59
e 55 62
e 55 64
e 55 65
e 55 66
e 55 67
e 55 77
e 55 88
e 55 94
e 55 95
e 55 100
e 55 101
e 55 110
e 55 115
e 55 120
e 55 122
e 55 137
e 55 142
e 55 143
e 55 152
e 55 157
e 55 160
e 55 164
e 55 175
e 55 197
e 55 198
e 56 71
e 56 75
e 56 89
e 56 92
e 56 104
e 56 105
e 56 112
e 56 116
e 56 122
e 56 130
e 56 135
e 56 146
e 56 164
e 56 180
e 57 58
e 57 64
e 57 66
e 57 70
e 57 72
e 57 73
e 57 86
e 57 92
e 57 99
e 57 105
e 57 117
e 57 120
e 57 132
e 57 138
e 57 141
e 57 149
e 57 172
e 57 178
e 57 185
e 57 191
e 57 193
e 57 196
e 57 198
e 58 59
e 58 72
e 58 73
e 58 78
e 58 83
e 58 84
e 58 88
e 58 94
e 58 97
e 58 107
e 58 112
e 58 116
e 58 118
e 58 128
e 58 138
e 58 142
e 58 144
e 58 147
e 58 153
e 58 154
e 58 162
e 58 164
e 58 167
e 58 172
e 58 196
e 58 197
e 59 91
e 59 108
e 59 122
e 59 148
e 59 197
e 60 65
e 60 70
e 60 81
e 60 86
e 60 98
e 60 108
e 60 112
e 60 116
e 60 159
e 60 163
e 61 66
e 61 74
e 61 77
e 61 83
e 61 85
e 61 109
e 61 120
e 61 123
e 61 129
e 61 142
e 61 143
e 61 146
e 61 156
e 61 157
e 61 175
e 61 179
e 61 185
e 61 186
e 61 191
e 61 194
e 61 199
e 62 86
e 62 95
e 62 99
e 62 103
e 62 106
e 62 108
e 62 137
e 62 151
e 62 157
e 62 188
e 62 191
e 62 199
e 63 66
e 63 68
e 63 69
e 63 72
e 63 77
e 63 79
e 63 81
e 63 91
e 63 93
e 63 94
e 63 106
e 63 107
e 63 110
e 63 114
e 63 127
e 63 133
e 63 151
e 63 157
e 63 162
e 63 188
e 64 69
e 64 74
e 64 76
e 64 130
e 64 174
e 64 182
e 64 194
e 65 69
e 65 74
e 65 85
e 65 87
e 65 88
e 65 111
e 65 114
e 65 133
e 65 141
e 65 151
e 65 152
e 65 157
e 65 178
e 65 186
e 65 195
e 66 77
e 66 80
e 66 84
e 66 89
e 66 98
e 66 99
e 66 119
e 66 124
e 66 150
e 66 164
e 66 167
e 66 170
e 66 175
e 66 198
e 67 70
e 67 73
e 67 82
e 67 114
e 67 139
e 67 140
e 67 152
e 67 172
e 67 180
e 67 183
e 67 192
e 68 69
e 68 70
e 68 71
e 68 77
e 68 79
e 68 87
e 68 90
e 68 93
e 68 98
e 68 106
e 68 120
e 68 127
e 68 146
e 68 172
e 69 72
e 69 79
e 69 113
e 69 116
e 69 122
e 69 131
e 69 138
e 69 141
e 69 144
e 69 160
e 69 162
e 69 169
e 69 181
e 69 186
e 69 197
e 69 198
e 70 73
e 70 80
e 70 91
e 70 92
e 70 96
e 70 107
e 70 142
e 70 150
e 70 153
e 70 162
e 70 165
e 70 167
e 70 182
e 70 189
e 71 74
e 71 85
e 71 86
e 71 87
e 71 96
e 71 116
e 71 132
e 71 147
e 71 177
e 71 186
e 71 193
e 71 196
e 72 73
e 72 74
e 72 75
e 72 81
e 72 88
e 72 114
e 72 122
e 72 123
e 72 147
e 72 151
e 72 160
e 72 163
e 72 170
e 72 182
e 72 194
e 72 196
e 73 89
e 73 96
e 73 101
e 73 112
e 73 114
e 73 128
e 73 132
e 73 140
e 73 148
e 73 154
e 73 156
e 73 169
e 73 171
e 74 75
e 74 84
e 74 97
e 74 98
e 74 101
e 74 104
e 74 105
e 74 113
e 74 115
e 74 141
e 74 150
e 74 160
e 74 164
e 74 175
e 74 183
e 75 106
e 75 140
e 75 142
e 75 184
e 75 191
e 76 82
e 76 103
e 76 109
e 76 115
e 76 136
e 76 139
e 76 169
e 76 181
e 76 187
e 77 78
e 77 83
e 77 99
e 77 103
e 77 127
e 77 140
e 77 154
e 77 160
e 77 184
e 77 194
e 78 82
e 78 84
e 78 86
e 78 87
e 78 93
e 78 102
e 78 108
e 78 110
e 78 143
e 78 144
e 78 153
e 78 159
e 78 160
e 78 161
e 78 164
e 78 180
e 78 183
e 79 80
e 79 89
e 79 94
e 79 102
e 79 118
e 79 130
e 79 132
e 79 139
e 79 141
e 79 145
e 79 148
e 79 151
e 79 161
e 79 162
e 79 174
e 79 177
e 79 188
e 79 190
e 79 198
e 80 81
e 80 90
e 80 95
e 80 104
e 80 131
e 80 133
e 80 135
e 80 143
e 80 146
e 80 154
e 80 167
e 80 168
e 80 172
e 80 184
e 80 194
e 81 88
e 81 90
e 81 98
e 81 99
e 81 100
e 81 106
e 81 125
e 81 136
e 81 139
e 81 140
e 81 145
e 81 159
e 81 170
e 81 176
e 81 180
e 82 101
e 82 116
e 82 130
e 82 132
e 82 137
e 82 139
e 82 142
e 82 143
e 82 158
e 82 161
e 82 182
e 82 188
e 82 191
e 82 194
e 83 87
e 83 95
e 83 110
e 83 121
e 83 122
e 83 135
e 83 137
e 83 140
e 83 142
e 83 145
e 83 147
e 83 198
e 84 88
e 84 90
e 84 94
e 84 97
e 84 141
e 84 152
e 84 160
e 84 176
e 84 187
e 85 95
e 85 102
e 85 103
e 85 111
e 85 116
e 85 122
e 85 123
e 85 132
e 85 159
e 85 160
e 85 164
e 85 178
e 85 181
e 85 197
e 85 199
e 86 113
e 86 115
e 86 125
e 86 128
e 86 138
e 86 158
e 86 162
e 86 165
e 86 190
e 86 192
e 87 92
e 87 100
e 87 105
e 87 127
e 87 128
e 87 130
e 87 133
e 88 104
e 88 137
e 88 138
e 88 149
e 88 164
e 89 91
e 89 111
e 89 127
e 89 130
e 89 133
e 89 142
e 89 152
e 89 179
e 89 195
e 90 102
e 90 135
e 90 147
e 90 163
e 90 178
e 90 180
e 90 181
e 90 189
e 91 114
e 91 115
e 91 117
e 91 120
e 91 136
e 91 148
e 91 159
e 91 181
e 91 188
e 92 100
e 92 115
e 92 119
e 92 132
e 92 136
e 92 138
e 92 166
e 92 180
e 92 191
e 92 192
e 93 121
e 93 129
e 93 133
e 93 142
e 93 144
e 93 152
e 93 157
e 94 95
e 94 96
e 94 99
e 94 100
e 94 105
e 94 119
e 94 142
e 94 153
e 94 155
e 94 158
e 94 188
e 94 189
e 94 196
e 95 112
e 95 119
e 95 129
e 95 144
e 95 149
e 95 150
e 95 157
e 95 183
e 95 194
e 96 97
e 96 111
e 96 127
e 96 135
e 96 144
e 96 149
e 96 162
e 96 165
e 96 185
e 96 186
e 96 193
e 96 195
e 97 126
e 97 155
e 97 168
e 98 102
e 98 105
e 98 134
e 98 141
e 98 143
e 98 148
e 98 151
e 98 154
e 98 156
e 98 161
e 98 169
e 98 170
e 98 177
e 98 179
e 99 104
e 99 110
e 99 114
e 99 124
e 99 126
e 99 148
e 99 174
e 99 189
e 100 106
e 100 114
e 100 129
e 100 135
e 100 178
e 100 180
e 101 112
e 101 113
e 101 172
e 102 111
e 102 141
e 102 146
e 102 153
e 102 155
e 102 171
e 102 174
e 102 181
e 102 192
e 102 194
e 102 199
e 103 113
e 103 126
e 103 131
e 103 134
e 103 137
e 103 140
e 103 145
e 103 151
e 103 179
e 103 182
e 103 189
e 103 197
e 104 115
e 104 151
e 105 121
e 105 124
e 105 158
e 105 172
e 105 178
e 105 192
e 105 194
e 105 195
e 106 114
e 106 117
e 106 118
e 106 124
e 106 131
e 106 157
e 106 162
e 106 163
e 106 168
e 106 177
e 106 178
e 106 181
e 107 121
e 107 128
e 107 145
e 107 176
e 107 186
e 107 189
e 108 109
e 108 118
e 108 121
e 108 122
e 108 126
e 108 127
e 108 150
e 108 159
e 108 162
e 108 180
e 109 124
e 109 130
e 109 147
e 109 152
e 109 161
e 109 179
e 109 185
e 109 187
e 109 189
e 110 121
e 110 131
e 110 145
e 110 146
e 110 163
e 110 165
e 110 167
e 110 184
e 111 115
e 111 126
e 111 130
e 111 131
e 111 147
e 111 151
e 111 158
e 111 161
e 111 189
e 112 114
e 112 129
e 112 134
e 112 143
e 112 159
e 112 163
e 112 171
e 113 122
e 113 148
e 113 161
e 113 165
e 113 173
e 113 184
e 113 186
e 114 128
e 114 131
e 114 155
e 114 169
e 114 195
e 115 118
e 115 134
e 115 136
e 115 139
e 115 143
e 115 146
e 115 150
e 115 166
e 115 168
e 115 171
e 116 144
e 116 171
e 116 173
e 117 175
e 117 190
e 117 195
e 117 198
e 118 124
e 118 133
e 118 161
e 118 166
e 118 174
e 119 134
e 119 146
e 119 154
e 119 155
e 119 161
e 119 176
e 119 183
e 119 193
e 120 157
e 120 177
e 121 123
e 121 124
e 121 130
e 121 131
e 121 135
e 121 153
e 121 183
e 122 140
e 122 149
e 122 150
e 122 151
e 122 154
e 122 170
e 122 177
e 122 178
e 122 192
e 122 197
e 123 125
e 123 134
e 123 158
e 123 164
e 123 169
e 123 174
e 123 197
e 124 137
e 124 145
e 124 153
e 124 165
e 124 177
e 124 178
e 124 185
e 124 188
e 125 134
e 125 139
e 125 145
e 125 158
e 125 160
e 125 173
e 125 180
e 126 134
e 126 136
e 126 145
e 126 146
e 126 166
e 126 173
e 126 176
e 126 189
e 127 151
e 127 185
e 127 191
e 128 149
e 128 168
e 128 180
e 128 199
e 129 146
e 129 154
e 129 158
e 130 180
e 130 197
e 131 140
e 131 143
e 131 147
e 131 153
e 131 156
e 131 166
e 131 184
e 132 134
e 132 183
e 133 138
e 133 141
e 133 144
e 133 145
e 133 146
e 133 159
e 133 182
e 133 198
e 134 144
e 134 153
e 134 160
e 134 163
e 134 180
e 137 141
e 137 152
e 137 170
e 137 186
e 137 193
e 137 196
e 137 198
e 138 139
e 138 152
e 138 156
e 138 165
e 138 166
e 138 173
e 138 179
e 138 190
e 138 194
e 139 167
e 140 141
e 140 179
e 140 191
e 140 199
e 141 184
e 142 186
e 142 198
e 143 199
e 144 147
e 144 173
e 144 174
e 144 190
e 145 152
e 145 155
e 145 187
e 146 151
e 146 160
e 146 171
e 146 183
e 146 188
e 147 150
e 147 156
e 147 186
e 147 192
e 147 195
e 147 199
e 148 178
e 150 165
e 150 184
e 152 187
e 152 196
e 153 154
e 153 155
e 153 159
e 153 173
e 153 195
e 153 196
e 154 183
e 155 159
e 157 177
e 157 183
e 158 191
e 159 163
e 160 162
e 161 174
e 161 184
e 163 179
e 164 171
e 164 175
e 167 173
e 167 179
e 169 173
e 169 180
e 169 188
e 169 189
e 171 187
e 171 192
e 172 175
e 172 197
e 173 174
e 173 194
e 174 187
e 174 198
e 175 190
e 177 178
e 177 197
e 183 197
e 184 192
e 185 187
e 186 194
e 188 189
e 190 199
e 195 198
